8409
44, 16, 29, 30, 2, 7, 42, 21, 17, 3, 41, 8, 9, 10, 19, 45, 18, 31, 23, 20, 50, 1, 22, 32, 49, 36, 35, 34, 39, 40, 37, 38, 15, 43, 33, 51, 28, 27, 26, 47, 13, 14, 52, 11, 12, 25, 4, 6, 5, 24, 48, 46
